50 10727

369
411
218
42
340
152
232
359
446
445
490
96
496
98
97
480
147
54
385
347
206
382
224
137
148
459
351
98
322
450
469
395
336
255
62
390
117
112
276
353
112
311
322
423
220
145
83
364
159
24
